c Addition of two binary numbers: 1011101111 and 1111011
p cnf 39 114
-1 12 22 0
-1 -12 -22 0
1 -12 22 0
1 12 -22 0
-30 12 0
-30 22 0
-12 -22 30 0
-2 13 -23 -30 0
-2 -13 23 -30 0
-2 -13 -23 30 0
-2 13 23 30 0
2 -13 23 30 0
2 13 -23 30 0
2 13 23 -30 0
2 -13 -23 -30 0
-31 13 23 0
-31 13 30 0
-31 23 30 0
31 -13 -23 0
31 -13 -30 0
31 -23 -30 0
-3 14 -24 -31 0
-3 -14 24 -31 0
-3 -14 -24 31 0
-3 14 24 31 0
3 -14 24 31 0
3 14 -24 31 0
3 14 24 -31 0
3 -14 -24 -31 0
-32 14 24 0
-32 14 31 0
-32 24 31 0
32 -14 -24 0
32 -14 -31 0
32 -24 -31 0
-4 15 -25 -32 0
-4 -15 25 -32 0
-4 -15 -25 32 0
-4 15 25 32 0
4 -15 25 32 0
4 15 -25 32 0
4 15 25 -32 0
4 -15 -25 -32 0
-33 15 25 0
-33 15 32 0
-33 25 32 0
33 -15 -25 0
33 -15 -32 0
33 -25 -32 0
-5 16 -26 -33 0
-5 -16 26 -33 0
-5 -16 -26 33 0
-5 16 26 33 0
5 -16 26 33 0
5 16 -26 33 0
5 16 26 -33 0
5 -16 -26 -33 0
-34 16 26 0
-34 16 33 0
-34 26 33 0
34 -16 -26 0
34 -16 -33 0
34 -26 -33 0
-6 17 -27 -34 0
-6 -17 27 -34 0
-6 -17 -27 34 0
-6 17 27 34 0
6 -17 27 34 0
6 17 -27 34 0
6 17 27 -34 0
6 -17 -27 -34 0
-35 17 27 0
-35 17 34 0
-35 27 34 0
35 -17 -27 0
35 -17 -34 0
35 -27 -34 0
-7 18 -28 -35 0
-7 -18 28 -35 0
-7 -18 -28 35 0
-7 18 28 35 0
7 -18 28 35 0
7 18 -28 35 0
7 18 28 -35 0
7 -18 -28 -35 0
-36 18 28 0
-36 18 35 0
-36 28 35 0
36 -18 -28 0
36 -18 -35 0
36 -28 -35 0
-8 19 36 0
-8 -19 -36 0
8 -19 36 0
8 19 -36 0
-37 19 0
-37 36 0
-19 -36 37 0
-9 20 37 0
-9 -20 -37 0
9 -20 37 0
9 20 -37 0
-38 20 0
-38 37 0
-20 -37 38 0
-10 21 38 0
-10 -21 -38 0
10 -21 38 0
10 21 -38 0
-39 21 0
-39 38 0
-21 -38 39 0
-11 39 0
-39 11 0
12 0
13 0
14 0
15 0
-16 0
17 0
18 0
19 0
-20 0
21 0
22 0
23 0
-24 0
25 0
26 0
27 0
28 0
-29 0
